NAME : RC206
TYPE : CVRPTW
DIMENSION : 26
VEHICLES : 3
CAPACITY : 1000
SERVICE_TIME : 10
SCALE : 10
EDGE_WEIGHT_TYPE : FLOOR_2D
NODE_COORD_SECTION
1 40 50
2 25 85
3 22 75
4 22 85
5 20 80
6 20 85
7 18 75
8 15 75
9 15 80
10 10 35
11 10 40
12 8 40
13 8 45
14 5 35
15 5 45
16 2 40
17 0 40
18 0 45
19 44 5
20 42 10
21 42 15
22 40 5
23 40 15
24 38 5
25 38 15
26 35 5
DEMAND_SECTION
1 0
2 20
3 30
4 10
5 40
6 20
7 20
8 20
9 10
10 20
11 30
12 40
13 20
14 10
15 10
16 20
17 20
18 20
19 20
20 40
21 10
22 10
23 40
24 30
25 10
26 20
TIME_WINDOW_SECTION
1 0 960
2 613 853
3 92 332
4 411 651
5 584 824
6 40 280
7 328 568
8 240 480
9 307 547
10 311 551
11 459 699
12 135 375
13 163 403
14 593 833
15 35 275
16 114 354
17 195 435
18 643 883
19 275 515
20 194 434
21 477 717
22 155 395
23 315 555
24 141 381
25 621 861
26 664 904
DEPOT_SECTION
1 
-1
EOF
